NAME : portcgen-17-24
COMMENT : portcgen N=17, seed=24
TYPE : TSP
DIMENSION : 17
EDGE_WEIGHT_TYPE : EUC_2D
NODE_COORD_SECTION
1 -225116 291991
2 293039 119152
3 -194369 56495
4 780574 -54742
5 -77621 71053
6 -85299 291002
7 28974 166157
8 164463 -66679
9 90468 269844
10 28461 273788
11 -137956 -465909
12 195014 -363524
13 -179755 -125095
14 198712 283684
15 -223980 -12032
16 -15365 124254
17 45102 351035
